c Random generated cnf formula, satisfiable: false
p cnf 10 50
9 8 10 0
-3 -4 -10 0
10 -2 -4 0
-5 6 1 0
-5 -6 9 0
4 -3 -8 0
-3 7 -4 0
-5 9 10 0
10 4 -6 0
-1 -3 -8 0
-5 -3 -4 0
6 -9 10 0
9 3 6 0
2 8 -6 0
6 -10 5 0
1 2 -9 0
3 -4 -8 0
9 -2 5 0
7 -4 8 0
3 1 8 0
-8 -5 -2 0
-6 7 1 0
-2 -7 -4 0
-6 -1 -9 0
-1 -10 -5 0
-4 9 -1 0
3 -5 -1 0
-8 2 -1 0
-7 -4 -3 0
6 -10 2 0
-6 3 5 0
-10 -1 5 0
8 -4 9 0
-7 8 9 0
10 5 -3 0
-9 6 -2 0
1 -6 9 0
3 1 -9 0
-6 -5 -9 0
-6 -4 -2 0
8 -6 -2 0
-1 -10 -3 0
9 6 4 0
-9 -5 -6 0
-5 10 8 0
10 -7 8 0
10 7 -1 0
4 -10 1 0
2 -9 -1 0
9 8 5 0
